\ Model firm
\ LP format - for model browsing. Use MPS format to capture full model detail.
Maximize
  17.23738613351312 output - 5 emission + [ - 0.271036058197887 output ^2
   + 0.1420721163957739 output * emission - 0.0710360581978869 emission ^2
   ] / 2 
Subject To
 R0: - output + emission <= 0
Bounds
End
